s td 99 10 108
b 1 1 2 13
b 2 11 12 24
b 3 85 97 98
b 4 96 107 108
b 5 2 3 13 14
b 6 10 11 23 24
b 7 3 4 16 29 42 55 68 81 92 103
b 8 4 5 16 29 42 55 68 81 92 103
b 9 5 16 18 29 42 55 68 81 92 103
b 10 5 18 29 31 42 55 68 81 92 103
b 11 5 18 31 42 44 55 68 81 92 103
b 12 5 18 31 44 55 57 68 81 92 103
b 13 5 18 31 44 57 68 70 81 92 103
b 14 5 18 31 44 57 70 81 92 103 105
b 15 5 18 31 44 57 70 81 92 94 105
b 16 5 18 31 44 57 70 81 83 94 105
b 17 5 18 31 44 57 70 72 83 94 105
b 18 5 18 31 44 57 59 70 72 83
b 19 5 18 31 44 46 57 59 70 72
b 20 5 18 31 33 44 46 57 59 72
b 21 5 18 20 31 33 44 46 59 72
b 22 5 8 18 20 31 33 46 59 72
b 23 5 8 18 19 20 31
b 24 5 6 8 18 19
b 25 6 7 8 19
b 26 8 20 33 46 48 59 72
b 27 8 20 33 35 46 48 59
b 28 8 20 33 34 35 46 48
b 29 8 20 21 33 34 35 48
b 30 8 21 22 34 35 48
b 31 8 9 21 22 35 48
b 32 9 22 24 35 48
b 33 9 22 23 24 35
b 34 9 10 22 23 24
b 35 24 35 36 48
b 36 35 46 47 48 59
b 37 48 59 60 72
b 38 20 31 32 33 44
b 39 33 44 45 46 57
b 40 46 57 58 59 70
b 41 59 70 71 72 83
b 42 72 83 94 105 107
b 43 72 83 94 95 107
b 44 72 83 84 95 107
b 45 94 105 106 107
b 46 70 81 82 83 94
b 47 81 92 93 94 105
b 48 92 103 104 105
b 49 57 68 69 70 81
b 50 44 55 56 57 68
b 51 31 42 43 44 55
b 52 18 29 30 31 42
b 53 5 16 17 18 29
b 54 3 16 29 42 55 68 79 81 92 103
b 55 3 16 29 42 55 66 68 79 92 103
b 56 3 16 29 42 53 55 66 79 92 103
b 57 3 16 29 40 42 53 66 79 92 103
b 58 3 16 27 29 40 53 66 79 92 103
b 59 3 16 27 40 53 66 79 90 92 103
b 60 3 16 27 40 53 66 77 79 90 103
b 61 3 16 27 40 53 64 66 77 90 103
b 62 3 16 27 40 51 53 64 77 90 103
b 63 3 16 27 38 40 51 64 77 90 103
b 64 3 16 27 37 38 51 64 77 90 103
b 65 3 14 16 27 37 38
b 66 3 14 26 27 37 38
b 67 3 13 14 26 37
b 68 13 25 26 37
b 69 3 14 15 16 27
b 70 37 38 51 64 77 90 101 103
b 71 37 38 51 64 77 88 90 101
b 72 37 38 51 64 75 77 88 101
b 73 37 38 51 62 64 75 88 101
b 74 37 38 51 61 62 75 88 101
b 75 37 38 50 51 61 62
b 76 37 49 50 61
b 77 61 62 75 88 99 101
b 78 61 62 75 86 88 99
b 79 61 62 73 75 86 99
b 80 62 73 74 75 86
b 81 73 86 98 99
b 82 75 86 87 88 99
b 83 88 99 100 101
b 84 51 62 63 64 75
b 85 64 75 76 77 88
b 86 77 88 89 90 101
b 87 90 101 102 103
b 88 27 38 39 40 51
b 89 40 51 52 53 64
b 90 53 64 65 66 77
b 91 66 77 78 79 90
b 92 79 90 91 92 103
b 93 16 27 28 29 40
b 94 29 40 41 42 53
b 95 42 53 54 55 66
b 96 55 66 67 68 79
b 97 68 79 80 81 92
b 98 73 85 86 98
b 99 84 95 96 107
1 5
2 6
3 98
4 99
5 67
6 34
7 8
7 54
8 9
9 10
9 53
10 11
10 52
11 12
11 51
12 13
12 50
13 14
13 49
14 15
14 48
15 16
15 47
16 17
16 46
17 18
17 42
18 19
18 41
19 20
19 40
20 21
20 39
21 22
21 38
22 23
22 26
23 24
24 25
26 27
26 37
27 28
27 36
28 29
29 30
30 31
31 32
32 33
32 35
33 34
42 43
42 45
43 44
44 99
54 55
54 97
55 56
55 96
56 57
56 95
57 58
57 94
58 59
58 93
59 60
59 92
60 61
60 91
61 62
61 90
62 63
62 89
63 64
63 88
64 65
64 70
65 66
65 69
66 67
67 68
70 71
70 87
71 72
71 86
72 73
72 85
73 74
73 84
74 75
74 77
75 76
77 78
77 83
78 79
78 82
79 80
79 81
81 98
